65	65	65	139	139	139	139	139	139	139	128	65	
65	65	130	139	139	139	139	139	139	139	139	130	
65	65	139	139	139	139	139	139	139	139	139	139	
65	65	65	139	139	139	139	139	139	139	139	65	
65	65	65	65	3	3	3	3	3	3	65	65	
65	65	65	65	17	17	17	17	17	17	65	65	
65	65	65	65	14	14	14	14	14	14	65	65	
65	65	65	65	14	14	14	14	14	14	65	65	
65	65	65	65	14	14	14	14	14	14	65	65	
65	65	65	65	14	14	14	14	14	14	65	65	
65	65	65	65	14	14	14	14	14	14	65	65	
65	65	65	14	14	14	14	14	14	3	65	65	
65	65	14	14	14	14	14	14	3	3	65	65	
65	14	14	14	14	14	14	3	3	3	65	65	
14	14	14	14	14	14	14	3	3	65	65	65	
14	14	14	14	14	14	14	3	65	65	65	65	
14	14	14	14	14	14	14	65	65	65	65	65	
65	14	14	14	14	14	65	65	65	65	65	65	
